\ENCODING=ISO-8859-1
\Problem name: ilog.cplex

Minimize
 obj1: - x_0_1 - x_0_2 - x_0_3 + x_0_4 - x_0_7 - x_0_9 - x_0_10 + x_0_12
       + x_0_14 - x_0_16 - x_16_17 - x_16_18 - x_0_19 - x_16_19 + x_0_20
       - x_16_20 - x_16_21 + x_16_22 + x_0_23 + x_0_24 - x_0_25 - x_16_25
       + x_16_28 + x_0_30 + x_16_31 + x_1_2 + x_1_3 - x_1_4 - x_1_6 + x_1_7
       - x_1_8 - x_1_9 + x_1_13 - x_17_18 - x_17_19 + x_1_20 + x_17_20
       + x_17_24 + x_17_25 - x_1_27 + x_17_28 + x_17_30 + x_1_31 + x_17_31
       - x_2_3 - x_2_4 - x_2_5 - x_2_6 - x_2_7 - x_2_8 - x_2_9 - x_2_10
       + x_2_11 + x_2_12 + x_2_18 + x_18_19 + x_2_20 - x_18_20 + x_2_21
       - x_18_22 + x_18_25 + x_18_26 + x_2_31 + x_18_31 - x_3_4 + x_3_7 + x_3_8
       + x_3_10 - x_3_14 + x_3_15 + x_3_18 - x_3_19 - x_19_20 + x_3_21
       - x_19_21 + x_19_22 - x_3_24 - x_3_25 + x_19_25 - x_3_27 + x_19_28
       + x_3_31 + x_4_5 - x_4_6 - x_4_7 + x_4_9 - x_4_10 - x_4_14 - x_4_16
       - x_4_17 - x_4_18 + x_4_19 - x_20_21 + x_20_22 + x_20_23 + x_4_24
       + x_4_25 + x_20_27 + x_4_30 - x_5_6 - x_5_7 + x_5_8 - x_5_10 - x_5_12
       - x_5_17 - x_5_22 - x_21_25 + x_5_26 + x_6_8 - x_6_9 - x_6_13 + x_6_15
       - x_6_17 + x_6_20 + x_6_21 - x_22_23 - x_22_25 - x_22_26 + x_6_27
       - x_22_27 - x_22_28 - x_22_29 - x_22_30 - x_6_31 + x_7_9 - x_7_11
       + x_7_18 + x_7_20 - x_23_24 - x_7_25 - x_23_25 - x_23_26 + x_7_27
       - x_23_28 - x_23_29 + x_23_30 - x_23_31 - x_8_9 + x_8_10 - x_8_11
       + x_8_14 + x_8_15 + x_8_17 + x_8_20 + x_8_21 + x_8_22 - x_24_25
       - x_24_27 + x_8_28 + x_24_28 - x_24_30 + x_24_31 - x_9_10 + x_9_11
       + x_9_17 - x_9_18 - x_9_19 + x_9_20 - x_9_22 - x_9_25 + x_25_26
       - x_25_27 + x_25_28 + x_9_29 - x_25_29 + x_9_30 - x_25_31 + x_10_11
       + x_10_14 + x_10_21 + x_10_22 + x_10_26 + x_10_27 - x_26_27 - x_26_28
       + x_10_29 - x_26_29 + x_26_30 - x_26_31 - x_11_12 - x_11_13 - x_11_14
       - x_11_15 - x_11_16 - x_11_17 + x_11_18 - x_11_20 - x_11_21 + x_11_23
       + x_11_25 + x_11_26 + x_27_28 + x_27_29 + x_11_30 - x_11_31 - x_27_31
       - x_12_13 + x_12_14 - x_12_15 + x_12_18 - x_12_19 - x_12_20 - x_12_21
       - x_12_22 - x_28_29 - x_28_30 + x_12_31 - x_13_14 - x_13_15 - x_13_16
       - x_13_17 - x_13_18 - x_13_20 - x_13_21 - x_13_26 - x_13_30 - x_29_30
       + x_29_31 - x_14_15 + x_14_16 - x_14_18 - x_14_19 + x_14_20 - x_14_21
       + x_14_23 + x_14_25 + x_14_28 + x_14_29 + x_14_30 + x_30_31 - x_15_16
       - x_15_17 - x_15_18 + x_15_19 - x_15_20 - x_15_21 + x_15_25 + x_15_26
       + x_15_28 - x_15_29 + 129
Subject To
 c1:   x_2_8 + x_2_10 - x_8_10 <= 1
 c2:   x_8_11 - x_8_15 + x_11_15 <= 1
 c3:   x_0_16 - x_0_20 + x_16_20 <= 1
 c4:   x_8_11 - x_8_20 + x_11_20 <= 1
 c5:   x_16_18 - x_16_22 + x_18_22 <= 1
 c6:   - x_0_23 + x_0_25 + x_23_25 <= 1
 c7:   x_0_3 - x_0_24 + x_3_24 <= 1
 c8:   x_23_24 + x_23_28 - x_24_28 <= 1
 c9:   x_23_24 + x_23_31 - x_24_31 <= 1
 c10:  x_0_1 + x_0_2 - x_1_2 <= 1
 c11:  x_0_1 + x_0_3 - x_1_3 <= 1
 c12:  x_0_1 + x_0_7 - x_1_7 <= 1
 c13:  x_17_18 - x_9_17 + x_9_18 <= 1
 c14:  x_16_17 + x_16_20 - x_17_20 <= 1
 c15:  x_18_20 + x_9_18 - x_9_20 <= 1
 c16:  x_16_17 + x_16_25 - x_17_25 <= 1
 c17:  x_22_25 + x_22_26 - x_25_26 <= 1
 c18:  x_22_25 + x_22_28 - x_25_28 <= 1
 c19:  x_22_29 + x_9_22 - x_9_29 <= 1
 c20:  - x_17_30 + x_13_17 + x_13_30 <= 1
 c21:  x_22_30 + x_9_22 - x_9_30 <= 1
 c22:  - x_17_31 + x_11_17 + x_11_31 <= 1
 c23:  x_2_5 - x_2_12 + x_5_12 <= 1
 c24:  x_4_10 + x_4_14 - x_10_14 <= 1
 c25:  x_2_4 - x_2_18 + x_4_18 <= 1
 c26:  x_16_18 + x_16_19 - x_18_19 <= 1
 c27:  x_9_10 + x_9_22 - x_10_22 <= 1
 c28:  x_2_6 - x_2_31 + x_6_31 <= 1
 c29:  x_0_3 + x_0_10 - x_3_10 <= 1
 c30:  x_3_14 - x_3_15 + x_14_15 <= 1
 c31:  x_16_18 + x_11_16 - x_11_18 <= 1
 c32:  x_3_19 - x_3_21 + x_19_21 <= 1
 c33:  x_26_27 + x_26_28 - x_27_28 <= 1
 c34:  x_25_27 + x_25_29 - x_27_29 <= 1
 c35:  x_11_13 - x_11_30 + x_13_30 <= 1
 c36:  x_3_25 - x_3_31 + x_25_31 <= 1
 c37:  - x_4_5 + x_4_17 + x_5_17 <= 1
 c38:  x_18_20 - x_12_18 + x_12_20 <= 1
 c39:  x_16_19 + x_4_16 - x_4_19 <= 1
 c40:  x_18_20 + x_18_22 - x_20_22 <= 1
 c41:  x_3_4 + x_3_24 - x_4_24 <= 1
 c42:  x_11_12 + x_11_31 - x_12_31 <= 1
 c43:  x_2_5 + x_2_8 - x_5_8 <= 1
 c44:  x_5_22 - x_5_26 + x_22_26 <= 1
 c45:  x_1_6 + x_1_8 - x_6_8 <= 1
 c46:  - x_6_15 + x_6_17 + x_15_17 <= 1
 c47:  x_6_13 - x_6_20 + x_13_20 <= 1
 c48:  x_18_20 + x_14_18 - x_14_20 <= 1
 c49:  x_6_13 - x_6_21 + x_13_21 <= 1
 c50:  x_13_14 + x_13_30 - x_14_30 <= 1
 c51:  x_23_24 + x_23_31 + x_24_30 - x_30_31 <= 2
 c52:  x_0_7 + x_0_9 - x_7_9 <= 1
 c53:  x_4_7 + x_4_18 - x_7_18 <= 1
 c54:  x_16_19 + x_15_16 - x_15_19 <= 1
 c55:  x_7_11 - x_7_20 + x_11_20 <= 1
 c56:  x_16_25 + x_15_16 - x_15_25 <= 1
 c57:  x_7_25 - x_7_27 + x_25_27 <= 1
 c58:  x_28_29 - x_15_28 + x_15_29 <= 1
 c59:  x_22_23 + x_22_30 - x_23_30 <= 1
 c60:  - x_0_1 + x_0_9 + x_1_9 <= 1
 c61:  x_0_2 - x_0_4 + x_2_4 <= 1
 c62:  x_8_9 - x_8_10 + x_9_10 <= 1
 c63:  x_1_4 + x_1_8 + x_4_14 - x_8_14 <= 2
 c64:  - x_16_18 + x_13_16 + x_13_18 <= 1
 c65:  x_0_19 - x_0_20 + x_19_20 <= 1
 c66:  - x_16_22 + x_18_22 + x_13_16 + x_13_18 <= 2
 c67:  - x_24_28 + x_24_30 + x_28_30 <= 1
 c68:  x_24_27 - x_24_31 + x_27_31 <= 1
 c69:  x_1_4 - x_1_13 + x_4_16 + x_13_16 <= 2
 c70:  x_17_19 - x_9_17 + x_9_19 <= 1
 c71:  x_19_20 + x_9_19 - x_9_20 <= 1
 c72:  x_23_25 + x_23_26 - x_25_26 <= 1
 c73:  x_23_25 + x_23_28 - x_25_28 <= 1
 c74:  x_9_25 - x_9_29 + x_25_29 <= 1
 c75:  x_24_25 + x_24_30 + x_9_25 - x_9_30 <= 2
 c76:  x_1_27 - x_1_31 + x_27_31 <= 1
 c77:  x_5_10 + x_5_22 - x_10_22 <= 1
 c78:  x_23_26 + x_23_28 - x_26_28 <= 1
 c79:  x_26_29 - x_26_30 + x_29_30 <= 1
 c80:  x_2_3 + x_2_7 - x_3_7 <= 1
 c81:  x_2_3 + x_2_10 - x_3_10 <= 1
 c82:  x_3_4 - x_3_14 + x_4_14 <= 1
 c83:  x_17_18 + x_11_17 - x_11_18 <= 1
 c84:  x_24_27 + x_24_30 - x_27_28 + x_28_30 <= 2
 c85:  x_22_27 + x_22_29 - x_27_29 <= 1
 c86:  x_3_27 - x_3_31 + x_27_31 <= 1
 c87:  x_1_4 + x_1_9 - x_4_9 <= 1
 c88:  - x_12_14 + x_12_21 + x_14_21 <= 1
 c89:  x_17_19 + x_4_17 - x_4_19 <= 1
 c90:  - x_20_22 + x_12_20 + x_12_22 <= 1
 c91:  x_3_4 + x_3_25 - x_4_25 <= 1
 c92:  x_26_29 + x_26_31 - x_29_31 <= 1
 c93:  - x_6_8 + x_6_9 + x_8_9 <= 1
 c94:  x_16_21 - x_14_16 + x_14_21 <= 1
 c95:  x_6_15 - x_6_21 + x_15_21 <= 1
 c96:  x_24_27 + x_24_30 + x_27_31 - x_30_31 <= 2
 c97:  x_2_7 + x_2_9 - x_7_9 <= 1
 c98:  x_23_28 - x_23_30 + x_28_30 <= 1
 c99:  x_1_8 + x_1_9 - x_8_9 <= 1
 c100: - x_1_6 + x_1_9 + x_6_9 <= 1
 c101: - x_25_26 + x_25_31 + x_26_31 <= 1
 c102: x_22_26 + x_22_30 - x_26_30 <= 1
 c103: x_21_25 + x_11_21 - x_11_25 <= 1
 c104: x_11_12 + x_11_14 - x_12_14 <= 1
 c105: x_23_29 + x_23_31 - x_29_31 <= 1
 c106: x_4_6 + x_4_16 - x_6_15 + x_15_16 <= 2
 c107: x_16_21 + x_4_6 + x_4_16 - x_6_21 <= 2
 c108: x_11_14 + x_11_21 - x_14_21 <= 1
 c109: x_23_30 + x_23_31 - x_30_31 <= 1
 c110: x_21_25 + x_15_21 - x_15_25 <= 1
 c111: - x_0_14 + x_0_16 + x_13_14 + x_13_16 <= 2
 c112: - x_0_24 + x_0_25 + x_24_25 <= 1
 c113: x_23_24 + x_23_26 - x_24_31 + x_26_31 <= 2
 c114: - x_1_2 + x_1_6 + x_2_6 <= 1
 c115: - x_17_20 + x_13_17 + x_13_20 <= 1
 c116: x_2_9 - x_2_18 + x_9_18 <= 1
 c117: x_3_27 - x_3_31 + x_26_27 + x_26_31 <= 2
 c118: x_26_27 + x_26_31 - x_27_31 <= 1
 c119: - x_4_5 + x_4_6 + x_5_6 <= 1
 c120: x_12_13 - x_12_18 + x_13_18 <= 1
 c121: x_20_21 - x_14_20 + x_14_21 <= 1
 c122: x_5_6 + x_5_12 - x_6_21 + x_12_21 <= 2
 c123: x_26_28 + x_26_31 + x_28_30 - x_30_31 <= 2
 c124: x_12_15 + x_12_19 - x_15_19 <= 1
 c125: x_23_26 - x_23_31 + x_26_31 <= 1
 c126: - x_1_3 + x_1_27 + x_3_27 <= 1
 c127: - x_3_7 + x_3_25 + x_7_25 <= 1
 c128: - x_0_4 + x_0_10 + x_4_10 <= 1
 c129: - x_16_18 + x_15_16 + x_15_18 <= 1
 c130: x_0_9 - x_0_23 + x_22_23 + x_9_22 <= 2
 c131: x_6_9 + x_6_17 - x_9_17 <= 1
 c132: - x_18_19 + x_14_18 + x_14_19 <= 1
 c133: x_4_6 - x_4_9 + x_6_9 <= 1
 c134: x_12_15 - x_12_18 + x_15_18 <= 1
 c135: x_20_21 - x_6_20 + x_6_21 <= 1
 c136: x_23_24 - x_23_30 + x_24_30 <= 1
 c137: x_5_10 + x_5_17 - x_10_11 + x_11_17 <= 2
 c138: x_22_26 + x_22_28 - x_26_28 <= 1
 c139: x_11_13 - x_11_14 + x_13_14 <= 1
 c140: x_4_14 - x_4_19 + x_14_19 <= 1
 c141: x_29_30 + x_29_31 - x_30_31 <= 1
 c142: x_19_20 - x_15_19 + x_15_20 <= 1
 c143: - x_0_12 + x_0_19 + x_12_19 <= 1
 c144: x_0_3 - x_0_30 + x_3_24 + x_24_30 <= 2
 c145: x_12_13 - x_12_14 + x_13_14 <= 1
 c146: x_13_14 + x_13_21 - x_14_21 <= 1
 c147: x_18_20 - x_7_18 + x_7_20 <= 1
 c148: x_13_15 + x_13_26 - x_15_26 <= 1
 c149: x_24_25 - x_24_31 + x_25_31 <= 1
 c150: x_1_6 - x_1_7 + x_5_6 + x_5_7 <= 2
 c151: x_0_3 + x_0_7 - x_3_7 <= 1
 c152: x_3_4 - x_3_15 + x_4_16 + x_15_16 <= 2
 c153: x_3_4 - x_3_18 + x_4_18 <= 1
 c154: x_3_14 - x_3_21 + x_14_21 <= 1
 c155: x_26_27 + x_26_29 - x_27_29 <= 1
 c156: x_25_29 + x_25_31 - x_29_31 <= 1
 c157: x_22_23 - x_22_29 + x_23_29 <= 1
 c158: x_24_25 + x_24_30 + x_25_31 - x_30_31 <= 2
 c159: - x_1_2 + x_1_8 + x_2_8 <= 1
 c160: x_2_4 - x_2_11 + x_4_16 + x_11_16 <= 2
 c161: x_2_4 - x_2_12 + x_4_14 + x_12_14 <= 2
 c162: x_5_10 + x_5_12 - x_10_21 + x_12_21 <= 2
 c163: x_2_3 + x_2_8 - x_3_8 <= 1
 c164: x_22_23 + x_11_12 - x_11_23 + x_12_22 <= 2
 c165: x_3_19 + x_3_25 - x_19_25 <= 1
 c166: x_22_27 + x_22_28 - x_27_28 <= 1
 c167: - x_4_5 + x_4_7 + x_5_7 <= 1
 c168: x_26_28 + x_26_31 + x_28_29 - x_29_31 <= 2
 c169: x_0_1 - x_0_4 + x_1_4 <= 1
 c170: x_19_21 - x_9_11 + x_9_19 + x_11_21 <= 2
 c171: x_1_4 + x_1_9 + x_4_17 - x_9_17 <= 2
 c172: x_4_6 + x_4_17 - x_6_17 <= 1
 c173: x_17_18 + x_5_7 + x_5_17 - x_7_18 <= 2
Bounds
 0 <= x_0_1 <= 1
 0 <= x_0_2 <= 1
 0 <= x_0_3 <= 1
 0 <= x_0_4 <= 1
 0 <= x_0_7 <= 1
 0 <= x_0_9 <= 1
 0 <= x_0_10 <= 1
 0 <= x_0_12 <= 1
 0 <= x_0_14 <= 1
 0 <= x_0_16 <= 1
 0 <= x_16_17 <= 1
 0 <= x_16_18 <= 1
 0 <= x_0_19 <= 1
 0 <= x_16_19 <= 1
 0 <= x_0_20 <= 1
 0 <= x_16_20 <= 1
 0 <= x_16_21 <= 1
 0 <= x_16_22 <= 1
 0 <= x_0_23 <= 1
 0 <= x_0_24 <= 1
 0 <= x_0_25 <= 1
 0 <= x_16_25 <= 1
 0 <= x_16_28 <= 1
 0 <= x_0_30 <= 1
 0 <= x_16_31 <= 1
 0 <= x_1_2 <= 1
 0 <= x_1_3 <= 1
 0 <= x_1_4 <= 1
 0 <= x_1_6 <= 1
 0 <= x_1_7 <= 1
 0 <= x_1_8 <= 1
 0 <= x_1_9 <= 1
 0 <= x_1_13 <= 1
 0 <= x_17_18 <= 1
 0 <= x_17_19 <= 1
 0 <= x_1_20 <= 1
 0 <= x_17_20 <= 1
 0 <= x_17_24 <= 1
 0 <= x_17_25 <= 1
 0 <= x_1_27 <= 1
 0 <= x_17_28 <= 1
 0 <= x_17_30 <= 1
 0 <= x_1_31 <= 1
 0 <= x_17_31 <= 1
 0 <= x_2_3 <= 1
 0 <= x_2_4 <= 1
 0 <= x_2_5 <= 1
 0 <= x_2_6 <= 1
 0 <= x_2_7 <= 1
 0 <= x_2_8 <= 1
 0 <= x_2_9 <= 1
 0 <= x_2_10 <= 1
 0 <= x_2_11 <= 1
 0 <= x_2_12 <= 1
 0 <= x_2_18 <= 1
 0 <= x_18_19 <= 1
 0 <= x_2_20 <= 1
 0 <= x_18_20 <= 1
 0 <= x_2_21 <= 1
 0 <= x_18_22 <= 1
 0 <= x_18_25 <= 1
 0 <= x_18_26 <= 1
 0 <= x_2_31 <= 1
 0 <= x_18_31 <= 1
 0 <= x_3_4 <= 1
 0 <= x_3_7 <= 1
 0 <= x_3_8 <= 1
 0 <= x_3_10 <= 1
 0 <= x_3_14 <= 1
 0 <= x_3_15 <= 1
 0 <= x_3_18 <= 1
 0 <= x_3_19 <= 1
 0 <= x_19_20 <= 1
 0 <= x_3_21 <= 1
 0 <= x_19_21 <= 1
 0 <= x_19_22 <= 1
 0 <= x_3_24 <= 1
 0 <= x_3_25 <= 1
 0 <= x_19_25 <= 1
 0 <= x_3_27 <= 1
 0 <= x_19_28 <= 1
 0 <= x_3_31 <= 1
 0 <= x_4_5 <= 1
 0 <= x_4_6 <= 1
 0 <= x_4_7 <= 1
 0 <= x_4_9 <= 1
 0 <= x_4_10 <= 1
 0 <= x_4_14 <= 1
 0 <= x_4_16 <= 1
 0 <= x_4_17 <= 1
 0 <= x_4_18 <= 1
 0 <= x_4_19 <= 1
 0 <= x_20_21 <= 1
 0 <= x_20_22 <= 1
 0 <= x_20_23 <= 1
 0 <= x_4_24 <= 1
 0 <= x_4_25 <= 1
 0 <= x_20_27 <= 1
 0 <= x_4_30 <= 1
 0 <= x_5_6 <= 1
 0 <= x_5_7 <= 1
 0 <= x_5_8 <= 1
 0 <= x_5_10 <= 1
 0 <= x_5_12 <= 1
 0 <= x_5_17 <= 1
 0 <= x_5_22 <= 1
 0 <= x_21_25 <= 1
 0 <= x_5_26 <= 1
 0 <= x_6_8 <= 1
 0 <= x_6_9 <= 1
 0 <= x_6_13 <= 1
 0 <= x_6_15 <= 1
 0 <= x_6_17 <= 1
 0 <= x_6_20 <= 1
 0 <= x_6_21 <= 1
 0 <= x_22_23 <= 1
 0 <= x_22_25 <= 1
 0 <= x_22_26 <= 1
 0 <= x_6_27 <= 1
 0 <= x_22_27 <= 1
 0 <= x_22_28 <= 1
 0 <= x_22_29 <= 1
 0 <= x_22_30 <= 1
 0 <= x_6_31 <= 1
 0 <= x_7_9 <= 1
 0 <= x_7_11 <= 1
 0 <= x_7_18 <= 1
 0 <= x_7_20 <= 1
 0 <= x_23_24 <= 1
 0 <= x_7_25 <= 1
 0 <= x_23_25 <= 1
 0 <= x_23_26 <= 1
 0 <= x_7_27 <= 1
 0 <= x_23_28 <= 1
 0 <= x_23_29 <= 1
 0 <= x_23_30 <= 1
 0 <= x_23_31 <= 1
 0 <= x_8_9 <= 1
 0 <= x_8_10 <= 1
 0 <= x_8_11 <= 1
 0 <= x_8_14 <= 1
 0 <= x_8_15 <= 1
 0 <= x_8_17 <= 1
 0 <= x_8_20 <= 1
 0 <= x_8_21 <= 1
 0 <= x_8_22 <= 1
 0 <= x_24_25 <= 1
 0 <= x_24_27 <= 1
 0 <= x_8_28 <= 1
 0 <= x_24_28 <= 1
 0 <= x_24_30 <= 1
 0 <= x_24_31 <= 1
 0 <= x_9_10 <= 1
 0 <= x_9_11 <= 1
 0 <= x_9_17 <= 1
 0 <= x_9_18 <= 1
 0 <= x_9_19 <= 1
 0 <= x_9_20 <= 1
 0 <= x_9_22 <= 1
 0 <= x_9_25 <= 1
 0 <= x_25_26 <= 1
 0 <= x_25_27 <= 1
 0 <= x_25_28 <= 1
 0 <= x_9_29 <= 1
 0 <= x_25_29 <= 1
 0 <= x_9_30 <= 1
 0 <= x_25_31 <= 1
 0 <= x_10_11 <= 1
 0 <= x_10_14 <= 1
 0 <= x_10_21 <= 1
 0 <= x_10_22 <= 1
 0 <= x_10_26 <= 1
 0 <= x_10_27 <= 1
 0 <= x_26_27 <= 1
 0 <= x_26_28 <= 1
 0 <= x_10_29 <= 1
 0 <= x_26_29 <= 1
 0 <= x_26_30 <= 1
 0 <= x_26_31 <= 1
 0 <= x_11_12 <= 1
 0 <= x_11_13 <= 1
 0 <= x_11_14 <= 1
 0 <= x_11_15 <= 1
 0 <= x_11_16 <= 1
 0 <= x_11_17 <= 1
 0 <= x_11_18 <= 1
 0 <= x_11_20 <= 1
 0 <= x_11_21 <= 1
 0 <= x_11_23 <= 1
 0 <= x_11_25 <= 1
 0 <= x_11_26 <= 1
 0 <= x_27_28 <= 1
 0 <= x_27_29 <= 1
 0 <= x_11_30 <= 1
 0 <= x_11_31 <= 1
 0 <= x_27_31 <= 1
 0 <= x_12_13 <= 1
 0 <= x_12_14 <= 1
 0 <= x_12_15 <= 1
 0 <= x_12_18 <= 1
 0 <= x_12_19 <= 1
 0 <= x_12_20 <= 1
 0 <= x_12_21 <= 1
 0 <= x_12_22 <= 1
 0 <= x_28_29 <= 1
 0 <= x_28_30 <= 1
 0 <= x_12_31 <= 1
 0 <= x_13_14 <= 1
 0 <= x_13_15 <= 1
 0 <= x_13_16 <= 1
 0 <= x_13_17 <= 1
 0 <= x_13_18 <= 1
 0 <= x_13_20 <= 1
 0 <= x_13_21 <= 1
 0 <= x_13_26 <= 1
 0 <= x_13_30 <= 1
 0 <= x_29_30 <= 1
 0 <= x_29_31 <= 1
 0 <= x_14_15 <= 1
 0 <= x_14_16 <= 1
 0 <= x_14_18 <= 1
 0 <= x_14_19 <= 1
 0 <= x_14_20 <= 1
 0 <= x_14_21 <= 1
 0 <= x_14_23 <= 1
 0 <= x_14_25 <= 1
 0 <= x_14_28 <= 1
 0 <= x_14_29 <= 1
 0 <= x_14_30 <= 1
 0 <= x_30_31 <= 1
 0 <= x_15_16 <= 1
 0 <= x_15_17 <= 1
 0 <= x_15_18 <= 1
 0 <= x_15_19 <= 1
 0 <= x_15_20 <= 1
 0 <= x_15_21 <= 1
 0 <= x_15_25 <= 1
 0 <= x_15_26 <= 1
 0 <= x_15_28 <= 1
 0 <= x_15_29 <= 1
End
